NAME: ACTUAL_TOURS/amz0246
TYPE: TOUR
COMMENT: RouteID_18b4650f-fdfc-48d4-bfa5-c9a72091d7fd
DIMENSION: 124
TOUR_SECTION
34
117
103
115
13
37
123
28
75
101
107
86
44
78
92
72
60
66
20
64
8
93
49
120
116
27
104
106
82
102
68
5
51
42
88
73
83
25
113
76
118
97
4
95
16
87
33
3
63
10
14
32
111
9
110
79
36
109
122
52
112
53
29
40
41
84
46
11
85
114
30
47
67
98
108
38
124
54
99
94
39
7
91
65
12
81
56
2
57
58
100
121
80
48
1
18
89
31
105
59
96
17
55
45
35
62
71
70
21
15
6
90
61
24
50
19
26
119
22
69
23
77
43
74
-1
EOF
